Version identifier: 22.1.1.0 | 2022-11-28 | 9160aff4d
CPXPARAM_ClockType                               1
CPXPARAM_Read_DataCheck                          1
CPXPARAM_Threads                                 1
CPXPARAM_TimeLimit                               7200
CPXPARAM_MIP_Tolerances_AbsMIPGap                0
CPXPARAM_MIP_Tolerances_MIPGap                   0
CPXPARAM_MIP_Tolerances_Integrality              0
Found incumbent of value 0.000000 after 0.00 sec. (0.10 ticks)
Tried aggregator 2 times.
MIP Presolve eliminated 127 rows and 0 columns.
MIP Presolve modified 508 coefficients.
Aggregator did 254 substitutions.
Reduced MIP has 12392 rows, 635 columns, and 37303 nonzeros.
Reduced MIP has 635 binaries, 0 generals, 0 SOSs, and 0 indicators.
Presolve time = 0.04 sec. (25.71 ticks)
Probing time = 0.01 sec. (2.68 ticks)
Tried aggregator 1 time.
Detecting symmetries...
Reduced MIP has 12392 rows, 635 columns, and 37303 nonzeros.
Reduced MIP has 635 binaries, 0 generals, 0 SOSs, and 0 indicators.
Presolve time = 0.05 sec. (34.47 ticks)
Probing time = 0.00 sec. (2.68 ticks)
Clique table members: 381.
MIP emphasis: balance optimality and feasibility.
MIP search method: dynamic search.
Parallel mode: none, using 1 thread.
Root relaxation solution time = 0.06 sec. (43.80 ticks)

        Nodes                                         Cuts/
   Node  Left     Objective  IInf  Best Integer    Best Bound    ItCnt     Gap

*     0+    0                            0.0000      127.0000              --- 
      0     0      127.0000    76        0.0000      127.0000      341     --- 
*     0+    0                          127.0000      127.0000             0.00%
      0     0        cutoff            127.0000      127.0000      341    0.00%
Elapsed time = 0.20 sec. (148.77 ticks, tree = 0.01 MB, solutions = 2)

Root node processing (before b&c):
  Real time             =    0.20 sec. (148.87 ticks)
Sequential b&c:
  Real time             =    0.00 sec. (0.00 ticks)
                          ------------
Total (root+branch&cut) =    0.20 sec. (148.87 ticks)
Solution is feasible.

---------------------
@@@ MIP_optimal
>>> Benchmark mc2024_track1_175.cnf k 2 OPT 127 TimeCost 0.9050519466400146 TimeSolve 0.21280932426452637 TimeRead 0.01209115982055664 TimeTrans 0.6801514625549316
